proyfinal/src/viki/013/experimentInOfficeAgust.take6.output/970d39c2-63e3-4a80-80e1-b3e2e5dbb609.als.dat
{'cnf.clauses': '118081',
 'cnf.totvars': '69608',
 'conflict literals': '175',
 'conflicts': '36',
 'decisions': '2539',
 'memused.mb': '15.55',
 'outcome': 'UNSAT',
 'propagations': '71702',
 'restarts': '1',
 'solver.msecs': 34,
 'task.msecs': 111}
