proyfinal/src/viki/013/experimentInOfficeAgust.take6.output/970d39c2-63e3-4a80-80e1-b3e2e5dbb609.als.out
Reading from standard input... Use '--help' for help.
============================[ Problem Statistics ]=============================
|                                                                             |
|  Number of variables:         69608                                         |
|  Number of clauses:          118081                                         |
|  Parse time:                   0.02 s                                       |
|                                                                             |
============================[ Search Statistics ]==============================
| Conflicts |          ORIGINAL         |          LEARNT          | Progress |
|           |    Vars  Clauses Literals |    Limit  Clauses Lit/Cl |          |
===============================================================================
===============================================================================
restarts              : 1
conflicts             : 36             (1050 /sec)
decisions             : 2539           (0.00 % random) (74028 /sec)
propagations          : 71702          (2090559 /sec)
conflict literals     : 175            (18.60 % deleted)
Memory used           : 15.55 MB
CPU time              : 0.034298 s

UNSATISFIABLE
